c Reduced graph for GEOM40_2 generated by Cyril Grelier
p edge 34 67
e 1 3
e 1 10
e 1 12
e 1 13
e 1 22
e 1 34
e 2 14
e 2 15
e 2 16
e 2 20
e 2 24
e 2 25
e 3 10
e 3 12
e 3 13
e 3 21
e 3 22
e 4 5
e 4 6
e 4 7
e 4 8
e 4 9
e 5 6
e 5 7
e 5 8
e 5 9
e 6 7
e 6 8
e 6 9
e 7 8
e 7 9
e 8 9
e 10 13
e 10 22
e 10 32
e 11 12
e 11 17
e 11 19
e 11 21
e 11 26
e 12 17
e 12 19
e 13 21
e 13 22
e 14 15
e 14 20
e 14 24
e 15 24
e 15 25
e 16 20
e 16 25
e 16 33
e 17 19
e 17 26
e 18 23
e 18 27
e 18 30
e 18 34
e 19 21
e 20 31
e 23 28
e 23 29
e 23 33
e 26 27
e 27 30
e 28 29
e 31 32
